p cnf 5 350
-21 5 6 2 1 0
-21 -5 6 -2 1 0
21 5 -6 2 1 0
21 5 6 2 1 0
21 -5 -6 -2 1 0
21 -5 6 -2 1 0
21 -5 6 -2 -1 0
21 -5 -6 -2 -1 0
21 5 6 2 -1 0
21 5 -6 2 -1 0
-21 -5 6 -2 -1 0
-21 5 6 2 -1 0
-21 5 -6 -2 -1 0
-21 5 -6 2 -1 0
-22 1 7 3 2 0
-22 -1 7 -3 2 0
22 1 -7 3 2 0
22 1 7 3 2 0
22 -1 -7 -3 2 0
22 -1 7 -3 2 0
22 -1 7 -3 -2 0
22 -1 -7 -3 -2 0
22 1 7 3 -2 0
22 1 -7 3 -2 0
-22 -1 7 -3 -2 0
-22 1 7 3 -2 0
-22 1 -7 -3 -2 0
-22 1 -7 3 -2 0
-23 2 8 4 3 0
-23 -2 8 -4 3 0
23 2 -8 4 3 0
23 2 8 4 3 0
23 -2 -8 -4 3 0
23 -2 8 -4 3 0
23 -2 8 -4 -3 0
23 -2 -8 -4 -3 0
23 2 8 4 -3 0
23 2 -8 4 -3 0
-23 -2 8 -4 -3 0
-23 2 8 4 -3 0
-23 2 -8 -4 -3 0
-23 2 -8 4 -3 0
-24 3 9 5 4 0
-24 -3 9 -5 4 0
24 3 -9 5 4 0
24 3 9 5 4 0
24 -3 -9 -5 4 0
24 -3 9 -5 4 0
24 -3 9 -5 -4 0
24 -3 -9 -5 -4 0
24 3 9 5 -4 0
24 3 -9 5 -4 0
-24 -3 9 -5 -4 0
-24 3 9 5 -4 0
-24 3 -9 -5 -4 0
-24 3 -9 5 -4 0
-25 4 10 1 5 0
-25 -4 10 -1 5 0
25 4 -10 1 5 0
25 4 10 1 5 0
25 -4 -10 -1 5 0
25 -4 10 -1 5 0
25 -4 10 -1 -5 0
25 -4 -10 -1 -5 0
25 4 10 1 -5 0
25 4 -10 1 -5 0
-25 -4 10 -1 -5 0
-25 4 10 1 -5 0
-25 4 -10 -1 -5 0
-25 4 -10 1 -5 0
-1 10 11 7 6 0
-1 -10 11 -7 6 0
1 10 -11 7 6 0
1 10 11 7 6 0
1 -10 -11 -7 6 0
1 -10 11 -7 6 0
1 -10 11 -7 -6 0
1 -10 -11 -7 -6 0
1 10 11 7 -6 0
1 10 -11 7 -6 0
-1 -10 11 -7 -6 0
-1 10 11 7 -6 0
-1 10 -11 -7 -6 0
-1 10 -11 7 -6 0
-2 6 12 8 7 0
-2 -6 12 -8 7 0
2 6 -12 8 7 0
2 6 12 8 7 0
2 -6 -12 -8 7 0
2 -6 12 -8 7 0
2 -6 12 -8 -7 0
2 -6 -12 -8 -7 0
2 6 12 8 -7 0
2 6 -12 8 -7 0
-2 -6 12 -8 -7 0
-2 6 12 8 -7 0
-2 6 -12 -8 -7 0
-2 6 -12 8 -7 0
-3 7 13 9 8 0
-3 -7 13 -9 8 0
3 7 -13 9 8 0
3 7 13 9 8 0
3 -7 -13 -9 8 0
3 -7 13 -9 8 0
3 -7 13 -9 -8 0
3 -7 -13 -9 -8 0
3 7 13 9 -8 0
3 7 -13 9 -8 0
-3 -7 13 -9 -8 0
-3 7 13 9 -8 0
-3 7 -13 -9 -8 0
-3 7 -13 9 -8 0
-4 8 14 10 9 0
-4 -8 14 -10 9 0
4 8 -14 10 9 0
4 8 14 10 9 0
4 -8 -14 -10 9 0
4 -8 14 -10 9 0
4 -8 14 -10 -9 0
4 -8 -14 -10 -9 0
4 8 14 10 -9 0
4 8 -14 10 -9 0
-4 -8 14 -10 -9 0
-4 8 14 10 -9 0
-4 8 -14 -10 -9 0
-4 8 -14 10 -9 0
-5 9 15 6 10 0
-5 -9 15 -6 10 0
5 9 -15 6 10 0
5 9 15 6 10 0
5 -9 -15 -6 10 0
5 -9 15 -6 10 0
5 -9 15 -6 -10 0
5 -9 -15 -6 -10 0
5 9 15 6 -10 0
5 9 -15 6 -10 0
-5 -9 15 -6 -10 0
-5 9 15 6 -10 0
-5 9 -15 -6 -10 0
-5 9 -15 6 -10 0
-6 15 16 12 11 0
-6 -15 16 -12 11 0
6 15 -16 12 11 0
6 15 16 12 11 0
6 -15 -16 -12 11 0
6 -15 16 -12 11 0
6 -15 16 -12 -11 0
6 -15 -16 -12 -11 0
6 15 16 12 -11 0
6 15 -16 12 -11 0
-6 -15 16 -12 -11 0
-6 15 16 12 -11 0
-6 15 -16 -12 -11 0
-6 15 -16 12 -11 0
-7 11 17 13 12 0
-7 -11 17 -13 12 0
7 11 -17 13 12 0
7 11 17 13 12 0
7 -11 -17 -13 12 0
7 -11 17 -13 12 0
7 -11 17 -13 -12 0
7 -11 -17 -13 -12 0
7 11 17 13 -12 0
7 11 -17 13 -12 0
-7 -11 17 -13 -12 0
-7 11 17 13 -12 0
-7 11 -17 -13 -12 0
-7 11 -17 13 -12 0
-8 12 18 14 13 0
-8 -12 18 -14 13 0
8 12 -18 14 13 0
8 12 18 14 13 0
8 -12 -18 -14 13 0
8 -12 18 -14 13 0
8 -12 18 -14 -13 0
8 -12 -18 -14 -13 0
8 12 18 14 -13 0
8 12 -18 14 -13 0
-8 -12 18 -14 -13 0
-8 12 18 14 -13 0
-8 12 -18 -14 -13 0
-8 12 -18 14 -13 0
-9 13 19 15 14 0
-9 -13 19 -15 14 0
9 13 -19 15 14 0
9 13 19 15 14 0
9 -13 -19 -15 14 0
9 -13 19 -15 14 0
9 -13 19 -15 -14 0
9 -13 -19 -15 -14 0
9 13 19 15 -14 0
9 13 -19 15 -14 0
-9 -13 19 -15 -14 0
-9 13 19 15 -14 0
-9 13 -19 -15 -14 0
-9 13 -19 15 -14 0
-10 14 20 11 15 0
-10 -14 20 -11 15 0
10 14 -20 11 15 0
10 14 20 11 15 0
10 -14 -20 -11 15 0
10 -14 20 -11 15 0
10 -14 20 -11 -15 0
10 -14 -20 -11 -15 0
10 14 20 11 -15 0
10 14 -20 11 -15 0
-10 -14 20 -11 -15 0
-10 14 20 11 -15 0
-10 14 -20 -11 -15 0
-10 14 -20 11 -15 0
-11 20 21 17 16 0
-11 -20 21 -17 16 0
11 20 -21 17 16 0
11 20 21 17 16 0
11 -20 -21 -17 16 0
11 -20 21 -17 16 0
11 -20 21 -17 -16 0
11 -20 -21 -17 -16 0
11 20 21 17 -16 0
11 20 -21 17 -16 0
-11 -20 21 -17 -16 0
-11 20 21 17 -16 0
-11 20 -21 -17 -16 0
-11 20 -21 17 -16 0
-12 16 22 18 17 0
-12 -16 22 -18 17 0
12 16 -22 18 17 0
12 16 22 18 17 0
12 -16 -22 -18 17 0
12 -16 22 -18 17 0
12 -16 22 -18 -17 0
12 -16 -22 -18 -17 0
12 16 22 18 -17 0
12 16 -22 18 -17 0
-12 -16 22 -18 -17 0
-12 16 22 18 -17 0
-12 16 -22 -18 -17 0
-12 16 -22 18 -17 0
-13 17 23 19 18 0
-13 -17 23 -19 18 0
13 17 -23 19 18 0
13 17 23 19 18 0
13 -17 -23 -19 18 0
13 -17 23 -19 18 0
13 -17 23 -19 -18 0
13 -17 -23 -19 -18 0
13 17 23 19 -18 0
13 17 -23 19 -18 0
-13 -17 23 -19 -18 0
-13 17 23 19 -18 0
-13 17 -23 -19 -18 0
-13 17 -23 19 -18 0
-14 18 24 20 19 0
-14 -18 24 -20 19 0
14 18 -24 20 19 0
14 18 24 20 19 0
14 -18 -24 -20 19 0
14 -18 24 -20 19 0
14 -18 24 -20 -19 0
14 -18 -24 -20 -19 0
14 18 24 20 -19 0
14 18 -24 20 -19 0
-14 -18 24 -20 -19 0
-14 18 24 20 -19 0
-14 18 -24 -20 -19 0
-14 18 -24 20 -19 0
-15 19 25 16 20 0
-15 -19 25 -16 20 0
15 19 -25 16 20 0
15 19 25 16 20 0
15 -19 -25 -16 20 0
15 -19 25 -16 20 0
15 -19 25 -16 -20 0
15 -19 -25 -16 -20 0
15 19 25 16 -20 0
15 19 -25 16 -20 0
-15 -19 25 -16 -20 0
-15 19 25 16 -20 0
-15 19 -25 -16 -20 0
-15 19 -25 16 -20 0
-16 25 1 22 21 0
-16 -25 1 -22 21 0
16 25 -1 22 21 0
16 25 1 22 21 0
16 -25 -1 -22 21 0
16 -25 1 -22 21 0
16 -25 1 -22 -21 0
16 -25 -1 -22 -21 0
16 25 1 22 -21 0
16 25 -1 22 -21 0
-16 -25 1 -22 -21 0
-16 25 1 22 -21 0
-16 25 -1 -22 -21 0
-16 25 -1 22 -21 0
-17 21 2 23 22 0
-17 -21 2 -23 22 0
17 21 -2 23 22 0
17 21 2 23 22 0
17 -21 -2 -23 22 0
17 -21 2 -23 22 0
17 -21 2 -23 -22 0
17 -21 -2 -23 -22 0
17 21 2 23 -22 0
17 21 -2 23 -22 0
-17 -21 2 -23 -22 0
-17 21 2 23 -22 0
-17 21 -2 -23 -22 0
-17 21 -2 23 -22 0
-18 22 3 24 23 0
-18 -22 3 -24 23 0
18 22 -3 24 23 0
18 22 3 24 23 0
18 -22 -3 -24 23 0
18 -22 3 -24 23 0
18 -22 3 -24 -23 0
18 -22 -3 -24 -23 0
18 22 3 24 -23 0
18 22 -3 24 -23 0
-18 -22 3 -24 -23 0
-18 22 3 24 -23 0
-18 22 -3 -24 -23 0
-18 22 -3 24 -23 0
-19 23 4 25 24 0
-19 -23 4 -25 24 0
19 23 -4 25 24 0
19 23 4 25 24 0
19 -23 -4 -25 24 0
19 -23 4 -25 24 0
19 -23 4 -25 -24 0
19 -23 -4 -25 -24 0
19 23 4 25 -24 0
19 23 -4 25 -24 0
-19 -23 4 -25 -24 0
-19 23 4 25 -24 0
-19 23 -4 -25 -24 0
-19 23 -4 25 -24 0
-20 24 5 21 25 0
-20 -24 5 -21 25 0
20 24 -5 21 25 0
20 24 5 21 25 0
20 -24 -5 -21 25 0
20 -24 5 -21 25 0
20 -24 5 -21 -25 0
20 -24 -5 -21 -25 0
20 24 5 21 -25 0
20 24 -5 21 -25 0
-20 -24 5 -21 -25 0
-20 24 5 21 -25 0
-20 24 -5 -21 -25 0
-20 24 -5 21 -25 0

